c File: flat75_3_0.col
c
c SOURCE: Joseph Culberson (joe@cs.ualberta.ca)
c DESCRIPTION: Quasi-random coloring problem
c              generated with flatness = 0
c                             probability = 0.096
c                             known coloring = 3
c                             random seed = 1038
c              Creation Date:  Wed Feb 24 10:41:57 1999
c Maximum degree = 8 Minimum degree = 1
c COLOR VERIFICATION: Using the permuted order
c under simple greedy yields the specified
c coloring number
c Color = 3 specified partitions = 3
c p edge 75 180
c cnf created by edge2cnf
p cnf 225 840
-1 -2 0
-1 -3 0
-2 -3 0
1 2 3 0
-4 -5 0
-4 -6 0
-5 -6 0
4 5 6 0
-7 -8 0
-7 -9 0
-8 -9 0
7 8 9 0
-10 -11 0
-10 -12 0
-11 -12 0
10 11 12 0
-13 -14 0
-13 -15 0
-14 -15 0
13 14 15 0
-16 -17 0
-16 -18 0
-17 -18 0
16 17 18 0
-19 -20 0
-19 -21 0
-20 -21 0
19 20 21 0
-22 -23 0
-22 -24 0
-23 -24 0
22 23 24 0
-25 -26 0
-25 -27 0
-26 -27 0
25 26 27 0
-28 -29 0
-28 -30 0
-29 -30 0
28 29 30 0
-31 -32 0
-31 -33 0
-32 -33 0
31 32 33 0
-34 -35 0
-34 -36 0
-35 -36 0
34 35 36 0
-37 -38 0
-37 -39 0
-38 -39 0
37 38 39 0
-40 -41 0
-40 -42 0
-41 -42 0
40 41 42 0
-43 -44 0
-43 -45 0
-44 -45 0
43 44 45 0
-46 -47 0
-46 -48 0
-47 -48 0
46 47 48 0
-49 -50 0
-49 -51 0
-50 -51 0
49 50 51 0
-52 -53 0
-52 -54 0
-53 -54 0
52 53 54 0
-55 -56 0
-55 -57 0
-56 -57 0
55 56 57 0
-58 -59 0
-58 -60 0
-59 -60 0
58 59 60 0
-61 -62 0
-61 -63 0
-62 -63 0
61 62 63 0
-64 -65 0
-64 -66 0
-65 -66 0
64 65 66 0
-67 -68 0
-67 -69 0
-68 -69 0
67 68 69 0
-70 -71 0
-70 -72 0
-71 -72 0
70 71 72 0
-73 -74 0
-73 -75 0
-74 -75 0
73 74 75 0
-76 -77 0
-76 -78 0
-77 -78 0
76 77 78 0
-79 -80 0
-79 -81 0
-80 -81 0
79 80 81 0
-82 -83 0
-82 -84 0
-83 -84 0
82 83 84 0
-85 -86 0
-85 -87 0
-86 -87 0
85 86 87 0
-88 -89 0
-88 -90 0
-89 -90 0
88 89 90 0
-91 -92 0
-91 -93 0
-92 -93 0
91 92 93 0
-94 -95 0
-94 -96 0
-95 -96 0
94 95 96 0
-97 -98 0
-97 -99 0
-98 -99 0
97 98 99 0
-100 -101 0
-100 -102 0
-101 -102 0
100 101 102 0
-103 -104 0
-103 -105 0
-104 -105 0
103 104 105 0
-106 -107 0
-106 -108 0
-107 -108 0
106 107 108 0
-109 -110 0
-109 -111 0
-110 -111 0
109 110 111 0
-112 -113 0
-112 -114 0
-113 -114 0
112 113 114 0
-115 -116 0
-115 -117 0
-116 -117 0
115 116 117 0
-118 -119 0
-118 -120 0
-119 -120 0
118 119 120 0
-121 -122 0
-121 -123 0
-122 -123 0
121 122 123 0
-124 -125 0
-124 -126 0
-125 -126 0
124 125 126 0
-127 -128 0
-127 -129 0
-128 -129 0
127 128 129 0
-130 -131 0
-130 -132 0
-131 -132 0
130 131 132 0
-133 -134 0
-133 -135 0
-134 -135 0
133 134 135 0
-136 -137 0
-136 -138 0
-137 -138 0
136 137 138 0
-139 -140 0
-139 -141 0
-140 -141 0
139 140 141 0
-142 -143 0
-142 -144 0
-143 -144 0
142 143 144 0
-145 -146 0
-145 -147 0
-146 -147 0
145 146 147 0
-148 -149 0
-148 -150 0
-149 -150 0
148 149 150 0
-151 -152 0
-151 -153 0
-152 -153 0
151 152 153 0
-154 -155 0
-154 -156 0
-155 -156 0
154 155 156 0
-157 -158 0
-157 -159 0
-158 -159 0
157 158 159 0
-160 -161 0
-160 -162 0
-161 -162 0
160 161 162 0
-163 -164 0
-163 -165 0
-164 -165 0
163 164 165 0
-166 -167 0
-166 -168 0
-167 -168 0
166 167 168 0
-169 -170 0
-169 -171 0
-170 -171 0
169 170 171 0
-172 -173 0
-172 -174 0
-173 -174 0
172 173 174 0
-175 -176 0
-175 -177 0
-176 -177 0
175 176 177 0
-178 -179 0
-178 -180 0
-179 -180 0
178 179 180 0
-181 -182 0
-181 -183 0
-182 -183 0
181 182 183 0
-184 -185 0
-184 -186 0
-185 -186 0
184 185 186 0
-187 -188 0
-187 -189 0
-188 -189 0
187 188 189 0
-190 -191 0
-190 -192 0
-191 -192 0
190 191 192 0
-193 -194 0
-193 -195 0
-194 -195 0
193 194 195 0
-196 -197 0
-196 -198 0
-197 -198 0
196 197 198 0
-199 -200 0
-199 -201 0
-200 -201 0
199 200 201 0
-202 -203 0
-202 -204 0
-203 -204 0
202 203 204 0
-205 -206 0
-205 -207 0
-206 -207 0
205 206 207 0
-208 -209 0
-208 -210 0
-209 -210 0
208 209 210 0
-211 -212 0
-211 -213 0
-212 -213 0
211 212 213 0
-214 -215 0
-214 -216 0
-215 -216 0
214 215 216 0
-217 -218 0
-217 -219 0
-218 -219 0
217 218 219 0
-220 -221 0
-220 -222 0
-221 -222 0
220 221 222 0
-223 -224 0
-223 -225 0
-224 -225 0
223 224 225 0
-58 -1 0
-59 -2 0
-60 -3 0
-79 -1 0
-80 -2 0
-81 -3 0
-91 -1 0
-92 -2 0
-93 -3 0
-208 -1 0
-209 -2 0
-210 -3 0
-34 -4 0
-35 -5 0
-36 -6 0
-37 -4 0
-38 -5 0
-39 -6 0
-52 -4 0
-53 -5 0
-54 -6 0
-103 -4 0
-104 -5 0
-105 -6 0
-109 -4 0
-110 -5 0
-111 -6 0
-130 -4 0
-131 -5 0
-132 -6 0
-190 -4 0
-191 -5 0
-192 -6 0
-205 -4 0
-206 -5 0
-207 -6 0
-10 -7 0
-11 -8 0
-12 -9 0
-28 -7 0
-29 -8 0
-30 -9 0
-31 -7 0
-32 -8 0
-33 -9 0
-34 -7 0
-35 -8 0
-36 -9 0
-91 -7 0
-92 -8 0
-93 -9 0
-139 -7 0
-140 -8 0
-141 -9 0
-160 -7 0
-161 -8 0
-162 -9 0
-223 -7 0
-224 -8 0
-225 -9 0
-31 -10 0
-32 -11 0
-33 -12 0
-82 -10 0
-83 -11 0
-84 -12 0
-130 -10 0
-131 -11 0
-132 -12 0
-187 -10 0
-188 -11 0
-189 -12 0
-25 -13 0
-26 -14 0
-27 -15 0
-40 -13 0
-41 -14 0
-42 -15 0
-46 -13 0
-47 -14 0
-48 -15 0
-76 -13 0
-77 -14 0
-78 -15 0
-88 -13 0
-89 -14 0
-90 -15 0
-142 -13 0
-143 -14 0
-144 -15 0
-145 -13 0
-146 -14 0
-147 -15 0
-148 -13 0
-149 -14 0
-150 -15 0
-160 -16 0
-161 -17 0
-162 -18 0
-172 -16 0
-173 -17 0
-174 -18 0
-193 -16 0
-194 -17 0
-195 -18 0
-43 -19 0
-44 -20 0
-45 -21 0
-73 -19 0
-74 -20 0
-75 -21 0
-172 -19 0
-173 -20 0
-174 -21 0
-34 -22 0
-35 -23 0
-36 -24 0
-52 -22 0
-53 -23 0
-54 -24 0
-88 -22 0
-89 -23 0
-90 -24 0
-28 -25 0
-29 -26 0
-30 -27 0
-31 -25 0
-32 -26 0
-33 -27 0
-40 -25 0
-41 -26 0
-42 -27 0
-136 -25 0
-137 -26 0
-138 -27 0
-196 -25 0
-197 -26 0
-198 -27 0
-97 -28 0
-98 -29 0
-99 -30 0
-106 -28 0
-107 -29 0
-108 -30 0
-109 -28 0
-110 -29 0
-111 -30 0
-199 -28 0
-200 -29 0
-201 -30 0
-187 -31 0
-188 -32 0
-189 -33 0
-55 -34 0
-56 -35 0
-57 -36 0
-67 -34 0
-68 -35 0
-69 -36 0
-148 -34 0
-149 -35 0
-150 -36 0
-202 -34 0
-203 -35 0
-204 -36 0
-52 -37 0
-53 -38 0
-54 -39 0
-58 -37 0
-59 -38 0
-60 -39 0
-64 -37 0
-65 -38 0
-66 -39 0
-175 -37 0
-176 -38 0
-177 -39 0
-127 -40 0
-128 -41 0
-129 -42 0
-112 -43 0
-113 -44 0
-114 -45 0
-166 -43 0
-167 -44 0
-168 -45 0
-205 -43 0
-206 -44 0
-207 -45 0
-58 -46 0
-59 -47 0
-60 -48 0
-91 -49 0
-92 -50 0
-93 -51 0
-97 -49 0
-98 -50 0
-99 -51 0
-106 -49 0
-107 -50 0
-108 -51 0
-157 -49 0
-158 -50 0
-159 -51 0
-190 -49 0
-191 -50 0
-192 -51 0
-91 -52 0
-92 -53 0
-93 -54 0
-142 -52 0
-143 -53 0
-144 -54 0
-64 -55 0
-65 -56 0
-66 -57 0
-109 -55 0
-110 -56 0
-111 -57 0
-175 -55 0
-176 -56 0
-177 -57 0
-178 -55 0
-179 -56 0
-180 -57 0
-187 -55 0
-188 -56 0
-189 -57 0
-145 -58 0
-146 -59 0
-147 -60 0
-157 -58 0
-158 -59 0
-159 -60 0
-163 -58 0
-164 -59 0
-165 -60 0
-142 -61 0
-143 -62 0
-144 -63 0
-184 -61 0
-185 -62 0
-186 -63 0
-133 -64 0
-134 -65 0
-135 -66 0
-214 -64 0
-215 -65 0
-216 -66 0
-85 -67 0
-86 -68 0
-87 -69 0
-97 -67 0
-98 -68 0
-99 -69 0
-124 -67 0
-125 -68 0
-126 -69 0
-151 -67 0
-152 -68 0
-153 -69 0
-124 -70 0
-125 -71 0
-126 -72 0
-136 -70 0
-137 -71 0
-138 -72 0
-142 -70 0
-143 -71 0
-144 -72 0
-157 -70 0
-158 -71 0
-159 -72 0
-136 -73 0
-137 -74 0
-138 -75 0
-190 -73 0
-191 -74 0
-192 -75 0
-82 -76 0
-83 -77 0
-84 -78 0
-169 -76 0
-170 -77 0
-171 -78 0
-196 -76 0
-197 -77 0
-198 -78 0
-199 -76 0
-200 -77 0
-201 -78 0
-220 -76 0
-221 -77 0
-222 -78 0
-148 -79 0
-149 -80 0
-150 -81 0
-214 -79 0
-215 -80 0
-216 -81 0
-139 -82 0
-140 -83 0
-141 -84 0
-208 -82 0
-209 -83 0
-210 -84 0
-130 -85 0
-131 -86 0
-132 -87 0
-166 -85 0
-167 -86 0
-168 -87 0
-202 -85 0
-203 -86 0
-204 -87 0
-121 -88 0
-122 -89 0
-123 -90 0
-154 -88 0
-155 -89 0
-156 -90 0
-178 -91 0
-179 -92 0
-180 -93 0
-181 -91 0
-182 -92 0
-183 -93 0
-103 -94 0
-104 -95 0
-105 -96 0
-115 -94 0
-116 -95 0
-117 -96 0
-172 -94 0
-173 -95 0
-174 -96 0
-202 -94 0
-203 -95 0
-204 -96 0
-145 -100 0
-146 -101 0
-147 -102 0
-160 -100 0
-161 -101 0
-162 -102 0
-163 -100 0
-164 -101 0
-165 -102 0
-166 -100 0
-167 -101 0
-168 -102 0
-187 -100 0
-188 -101 0
-189 -102 0
-190 -103 0
-191 -104 0
-192 -105 0
-151 -106 0
-152 -107 0
-153 -108 0
-163 -106 0
-164 -107 0
-165 -108 0
-175 -106 0
-176 -107 0
-177 -108 0
-211 -109 0
-212 -110 0
-213 -111 0
-133 -112 0
-134 -113 0
-135 -114 0
-136 -112 0
-137 -113 0
-138 -114 0
-151 -112 0
-152 -113 0
-153 -114 0
-154 -112 0
-155 -113 0
-156 -114 0
-181 -112 0
-182 -113 0
-183 -114 0
-124 -115 0
-125 -116 0
-126 -117 0
-175 -115 0
-176 -116 0
-177 -117 0
-190 -115 0
-191 -116 0
-192 -117 0
-193 -115 0
-194 -116 0
-195 -117 0
-196 -115 0
-197 -116 0
-198 -117 0
-208 -115 0
-209 -116 0
-210 -117 0
-211 -115 0
-212 -116 0
-213 -117 0
-184 -118 0
-185 -119 0
-186 -120 0
-169 -121 0
-170 -122 0
-171 -123 0
-199 -124 0
-200 -125 0
-201 -126 0
-217 -124 0
-218 -125 0
-219 -126 0
-172 -127 0
-173 -128 0
-174 -129 0
-175 -127 0
-176 -128 0
-177 -129 0
-202 -127 0
-203 -128 0
-204 -129 0
-193 -133 0
-194 -134 0
-195 -135 0
-160 -136 0
-161 -137 0
-162 -138 0
-199 -136 0
-200 -137 0
-201 -138 0
-211 -136 0
-212 -137 0
-213 -138 0
-172 -139 0
-173 -140 0
-174 -141 0
-187 -139 0
-188 -140 0
-189 -141 0
-187 -142 0
-188 -143 0
-189 -144 0
-220 -142 0
-221 -143 0
-222 -144 0
-202 -145 0
-203 -146 0
-204 -147 0
-208 -145 0
-209 -146 0
-210 -147 0
-223 -145 0
-224 -146 0
-225 -147 0
-163 -157 0
-164 -158 0
-165 -159 0
-220 -160 0
-221 -161 0
-222 -162 0
-166 -163 0
-167 -164 0
-168 -165 0
-178 -163 0
-179 -164 0
-180 -165 0
-196 -163 0
-197 -164 0
-198 -165 0
-175 -166 0
-176 -167 0
-177 -168 0
-178 -166 0
-179 -167 0
-180 -168 0
-181 -166 0
-182 -167 0
-183 -168 0
-181 -169 0
-182 -170 0
-183 -171 0
-193 -169 0
-194 -170 0
-195 -171 0
-211 -169 0
-212 -170 0
-213 -171 0
-214 -172 0
-215 -173 0
-216 -174 0
-220 -172 0
-221 -173 0
-222 -174 0
-214 -175 0
-215 -176 0
-216 -177 0
-199 -178 0
-200 -179 0
-201 -180 0
-217 -181 0
-218 -182 0
-219 -183 0
-220 -181 0
-221 -182 0
-222 -183 0
-205 -184 0
-206 -185 0
-207 -186 0
-223 -187 0
-224 -188 0
-225 -189 0
-193 -190 0
-194 -191 0
-195 -192 0
-214 -190 0
-215 -191 0
-216 -192 0
-220 -199 0
-221 -200 0
-222 -201 0
-217 -202 0
-218 -203 0
-219 -204 0
-211 -205 0
-212 -206 0
-213 -207 0
-214 -211 0
-215 -212 0
-216 -213 0
-217 -211 0
-218 -212 0
-219 -213 0
-223 -214 0
-224 -215 0
-225 -216 0
